c random assignment satisfied 0/430 clauses
o 430
c flipped 0/100 variables (k=0)
c solution improved by 199 clauses
o 231
c flipped 0/100 variables (k=0)
c solution improved by 7 clauses
o 224
c flipped 0/100 variables (k=0)
c solution improved by 11 clauses
o 213
c flipped 0/100 variables (k=0)
c solution improved by 12 clauses
o 201
c flipped 0/100 variables (k=0)
c solution improved by 10 clauses
o 191
c flipped 0/100 variables (k=0)
c solution improved by 2 clauses
o 189
c flipped 0/100 variables (k=0)
c solution improved by 2 clauses
o 187
c flipped 0/100 variables (k=0)
c solution improved by 4 clauses
o 183
c flipped 0/100 variables (k=0)
c solution improved by 41 clauses
o 142
c flipped 0/100 variables (k=0)
c solution improved by 14 clauses
o 128
c flipped 0/100 variables (k=0)
c solution improved by 1 clause
o 127
c flipped 0/100 variables (k=0)
c solution improved by 49 clauses
o 78
c flipped 0/100 variables (k=0)
c solution improved by 1 clause
o 77
c flipped 0/100 variables (k=0)
c solution improved by 1 clause
o 76
c flipped 0/100 variables (k=0)
c solution improved by 9 clauses
o 67
c flipped 0/100 variables (k=0)
c solution improved by 2 clauses
o 65
c flipped 0/100 variables (k=0)
c solution improved by 2 clauses
o 63
c flipped 0/100 variables (k=0)
c solution improved by 1 clause
o 62
c flipped 0/100 variables (k=0)
c solution improved by 1 clause
o 61
c flipped 0/100 variables (k=0)
c solution improved by 7 clauses
o 54
c flipped 0/100 variables (k=0)
c solution improved by 3 clauses
o 51
c flipped 0/100 variables (k=0)
c solution improved by 1 clause
o 50
c flipped 0/100 variables (k=0)
c solution improved by 1 clause
o 49
c flipped 0/100 variables (k=0)
c solution improved by 2 clauses
o 47
v 0010100100001111010111111111010101111111100010110110101100110000111001100111101010111111100010000100
c stuck at 383/430 clauses with k=0
s UNKNOWN
